sat
(model 
  (define-fun inv ((x!0 Int) (x!1 Int)) Bool
    (let ((a!1 (ite (<= 98 x!0)
                    (ite (<= 99 x!0) (ite (<= 100 x!0) 100 99) 98)
                    97))
          (a!34 (ite (<= 4753 x!1)
                     (ite (<= 4851 x!1) (ite (<= 4950 x!1) 4950 4851) 4753)
                     4656)))
    (let ((a!2 (ite (<= 95 x!0)
                    (ite (<= 96 x!0) (ite (<= 97 x!0) a!1 96) 95)
                    94))
          (a!35 (ite (<= 4465 x!1)
                     (ite (<= 4560 x!1) (ite (<= 4656 x!1) a!34 4560) 4465)
                     4371)))
    (let ((a!3 (ite (<= 92 x!0)
                    (ite (<= 93 x!0) (ite (<= 94 x!0) a!2 93) 92)
                    91))
          (a!36 (ite (<= 4186 x!1)
                     (ite (<= 4278 x!1) (ite (<= 4371 x!1) a!35 4278) 4186)
                     4095)))
    (let ((a!4 (ite (<= 89 x!0)
                    (ite (<= 90 x!0) (ite (<= 91 x!0) a!3 90) 89)
                    88))
          (a!37 (ite (<= 3916 x!1)
                     (ite (<= 4005 x!1) (ite (<= 4095 x!1) a!36 4005) 3916)
                     3828)))
    (let ((a!5 (ite (<= 86 x!0)
                    (ite (<= 87 x!0) (ite (<= 88 x!0) a!4 87) 86)
                    85))
          (a!38 (ite (<= 3655 x!1)
                     (ite (<= 3741 x!1) (ite (<= 3828 x!1) a!37 3741) 3655)
                     3570)))
    (let ((a!6 (ite (<= 83 x!0)
                    (ite (<= 84 x!0) (ite (<= 85 x!0) a!5 84) 83)
                    82))
          (a!39 (ite (<= 3403 x!1)
                     (ite (<= 3486 x!1) (ite (<= 3570 x!1) a!38 3486) 3403)
                     3321)))
    (let ((a!7 (ite (<= 80 x!0)
                    (ite (<= 81 x!0) (ite (<= 82 x!0) a!6 81) 80)
                    79))
          (a!40 (ite (<= 3160 x!1)
                     (ite (<= 3240 x!1) (ite (<= 3321 x!1) a!39 3240) 3160)
                     3081)))
    (let ((a!8 (ite (<= 77 x!0)
                    (ite (<= 78 x!0) (ite (<= 79 x!0) a!7 78) 77)
                    76))
          (a!41 (ite (<= 2926 x!1)
                     (ite (<= 3003 x!1) (ite (<= 3081 x!1) a!40 3003) 2926)
                     2850)))
    (let ((a!9 (ite (<= 74 x!0)
                    (ite (<= 75 x!0) (ite (<= 76 x!0) a!8 75) 74)
                    73))
          (a!42 (ite (<= 2701 x!1)
                     (ite (<= 2775 x!1) (ite (<= 2850 x!1) a!41 2775) 2701)
                     2628)))
    (let ((a!10 (ite (<= 71 x!0)
                     (ite (<= 72 x!0) (ite (<= 73 x!0) a!9 72) 71)
                     70))
          (a!43 (ite (<= 2485 x!1)
                     (ite (<= 2556 x!1) (ite (<= 2628 x!1) a!42 2556) 2485)
                     2415)))
    (let ((a!11 (ite (<= 68 x!0)
                     (ite (<= 69 x!0) (ite (<= 70 x!0) a!10 69) 68)
                     67))
          (a!44 (ite (<= 2278 x!1)
                     (ite (<= 2346 x!1) (ite (<= 2415 x!1) a!43 2346) 2278)
                     2211)))
    (let ((a!12 (ite (<= 65 x!0)
                     (ite (<= 66 x!0) (ite (<= 67 x!0) a!11 66) 65)
                     64))
          (a!45 (ite (<= 2080 x!1)
                     (ite (<= 2145 x!1) (ite (<= 2211 x!1) a!44 2145) 2080)
                     2016)))
    (let ((a!13 (ite (<= 62 x!0)
                     (ite (<= 63 x!0) (ite (<= 64 x!0) a!12 63) 62)
                     61))
          (a!46 (ite (<= 1891 x!1)
                     (ite (<= 1953 x!1) (ite (<= 2016 x!1) a!45 1953) 1891)
                     1830)))
    (let ((a!14 (ite (<= 59 x!0)
                     (ite (<= 60 x!0) (ite (<= 61 x!0) a!13 60) 59)
                     58))
          (a!47 (ite (<= 1711 x!1)
                     (ite (<= 1770 x!1) (ite (<= 1830 x!1) a!46 1770) 1711)
                     1653)))
    (let ((a!15 (ite (<= 56 x!0)
                     (ite (<= 57 x!0) (ite (<= 58 x!0) a!14 57) 56)
                     55))
          (a!48 (ite (<= 1540 x!1)
                     (ite (<= 1596 x!1) (ite (<= 1653 x!1) a!47 1596) 1540)
                     1485)))
    (let ((a!16 (ite (<= 53 x!0)
                     (ite (<= 54 x!0) (ite (<= 55 x!0) a!15 54) 53)
                     52))
          (a!49 (ite (<= 1378 x!1)
                     (ite (<= 1431 x!1) (ite (<= 1485 x!1) a!48 1431) 1378)
                     1326)))
    (let ((a!17 (ite (<= 50 x!0)
                     (ite (<= 51 x!0) (ite (<= 52 x!0) a!16 51) 50)
                     49))
          (a!50 (ite (<= 1225 x!1)
                     (ite (<= 1275 x!1) (ite (<= 1326 x!1) a!49 1275) 1225)
                     1176)))
    (let ((a!18 (ite (<= 47 x!0)
                     (ite (<= 48 x!0) (ite (<= 49 x!0) a!17 48) 47)
                     46))
          (a!51 (ite (<= 1081 x!1)
                     (ite (<= 1128 x!1) (ite (<= 1176 x!1) a!50 1128) 1081)
                     1035)))
    (let ((a!19 (ite (<= 44 x!0)
                     (ite (<= 45 x!0) (ite (<= 46 x!0) a!18 45) 44)
                     43))
          (a!52 (ite (<= 946 x!1)
                     (ite (<= 990 x!1) (ite (<= 1035 x!1) a!51 990) 946)
                     903)))
    (let ((a!20 (ite (<= 41 x!0)
                     (ite (<= 42 x!0) (ite (<= 43 x!0) a!19 42) 41)
                     40))
          (a!53 (ite (<= 820 x!1)
                     (ite (<= 861 x!1) (ite (<= 903 x!1) a!52 861) 820)
                     780)))
    (let ((a!21 (ite (<= 38 x!0)
                     (ite (<= 39 x!0) (ite (<= 40 x!0) a!20 39) 38)
                     37))
          (a!54 (ite (<= 703 x!1)
                     (ite (<= 741 x!1) (ite (<= 780 x!1) a!53 741) 703)
                     666)))
    (let ((a!22 (ite (<= 35 x!0)
                     (ite (<= 36 x!0) (ite (<= 37 x!0) a!21 36) 35)
                     34))
          (a!55 (ite (<= 595 x!1)
                     (ite (<= 630 x!1) (ite (<= 666 x!1) a!54 630) 595)
                     561)))
    (let ((a!23 (ite (<= 32 x!0)
                     (ite (<= 33 x!0) (ite (<= 34 x!0) a!22 33) 32)
                     31))
          (a!56 (ite (<= 496 x!1)
                     (ite (<= 528 x!1) (ite (<= 561 x!1) a!55 528) 496)
                     465)))
    (let ((a!24 (ite (<= 29 x!0)
                     (ite (<= 30 x!0) (ite (<= 31 x!0) a!23 30) 29)
                     28))
          (a!57 (ite (<= 406 x!1)
                     (ite (<= 435 x!1) (ite (<= 465 x!1) a!56 435) 406)
                     378)))
    (let ((a!25 (ite (<= 26 x!0)
                     (ite (<= 27 x!0) (ite (<= 28 x!0) a!24 27) 26)
                     25))
          (a!58 (ite (<= 325 x!1)
                     (ite (<= 351 x!1) (ite (<= 378 x!1) a!57 351) 325)
                     300)))
    (let ((a!26 (ite (<= 23 x!0)
                     (ite (<= 24 x!0) (ite (<= 25 x!0) a!25 24) 23)
                     22))
          (a!59 (ite (<= 253 x!1)
                     (ite (<= 276 x!1) (ite (<= 300 x!1) a!58 276) 253)
                     231)))
    (let ((a!27 (ite (<= 20 x!0)
                     (ite (<= 21 x!0) (ite (<= 22 x!0) a!26 21) 20)
                     19))
          (a!60 (ite (<= 190 x!1)
                     (ite (<= 210 x!1) (ite (<= 231 x!1) a!59 210) 190)
                     171)))
    (let ((a!28 (ite (<= 17 x!0)
                     (ite (<= 18 x!0) (ite (<= 19 x!0) a!27 18) 17)
                     16))
          (a!61 (ite (<= 136 x!1)
                     (ite (<= 153 x!1) (ite (<= 171 x!1) a!60 153) 136)
                     120)))
    (let ((a!29 (ite (<= 14 x!0)
                     (ite (<= 15 x!0) (ite (<= 16 x!0) a!28 15) 14)
                     13))
          (a!62 (ite (<= 91 x!1)
                     (ite (<= 105 x!1) (ite (<= 120 x!1) a!61 105) 91)
                     78)))
    (let ((a!30 (ite (<= 11 x!0)
                     (ite (<= 12 x!0) (ite (<= 13 x!0) a!29 12) 11)
                     10))
          (a!63 (ite (<= 55 x!1)
                     (ite (<= 66 x!1) (ite (<= 78 x!1) a!62 66) 55)
                     45)))
    (let ((a!31 (ite (<= 8 x!0) (ite (<= 9 x!0) (ite (<= 10 x!0) a!30 9) 8) 7))
          (a!64 (ite (<= 28 x!1)
                     (ite (<= 36 x!1) (ite (<= 45 x!1) a!63 36) 28)
                     21)))
    (let ((a!32 (ite (<= 5 x!0) (ite (<= 6 x!0) (ite (<= 7 x!0) a!31 6) 5) 4))
          (a!65 (ite (<= 10 x!1)
                     (ite (<= 15 x!1) (ite (<= 21 x!1) a!64 15) 10)
                     6)))
    (let ((a!33 (ite (<= 2 x!0) (ite (<= 3 x!0) (ite (<= 4 x!0) a!32 3) 2) 0))
          (a!66 (ite (<= 1 x!1) (ite (<= 3 x!1) (ite (<= 6 x!1) a!65 3) 1) 0)))
    (let ((a!67 (and (= (ite (<= 0 x!0) a!33 (- 1)) 100)
                     (= (ite (<= 0 x!1) a!66 (- 1)) 4950)))
          (a!68 (and (= (ite (<= 0 x!0) a!33 (- 1)) 99)
                     (= (ite (<= 0 x!1) a!66 (- 1)) 4851)))
          (a!69 (and (= (ite (<= 0 x!0) a!33 (- 1)) 98)
                     (= (ite (<= 0 x!1) a!66 (- 1)) 4753)))
          (a!70 (and (= (ite (<= 0 x!0) a!33 (- 1)) 97)
                     (= (ite (<= 0 x!1) a!66 (- 1)) 4656)))
          (a!71 (and (= (ite (<= 0 x!0) a!33 (- 1)) 96)
                     (= (ite (<= 0 x!1) a!66 (- 1)) 4560)))
          (a!72 (and (= (ite (<= 0 x!0) a!33 (- 1)) 95)
                     (= (ite (<= 0 x!1) a!66 (- 1)) 4465)))
          (a!73 (and (= (ite (<= 0 x!0) a!33 (- 1)) 94)
                     (= (ite (<= 0 x!1) a!66 (- 1)) 4371)))
          (a!74 (and (= (ite (<= 0 x!0) a!33 (- 1)) 93)
                     (= (ite (<= 0 x!1) a!66 (- 1)) 4278)))
          (a!75 (and (= (ite (<= 0 x!0) a!33 (- 1)) 92)
                     (= (ite (<= 0 x!1) a!66 (- 1)) 4186)))
          (a!76 (and (= (ite (<= 0 x!0) a!33 (- 1)) 91)
                     (= (ite (<= 0 x!1) a!66 (- 1)) 4095)))
          (a!77 (and (= (ite (<= 0 x!0) a!33 (- 1)) 90)
                     (= (ite (<= 0 x!1) a!66 (- 1)) 4005)))
          (a!78 (and (= (ite (<= 0 x!0) a!33 (- 1)) 89)
                     (= (ite (<= 0 x!1) a!66 (- 1)) 3916)))
          (a!79 (and (= (ite (<= 0 x!0) a!33 (- 1)) 88)
                     (= (ite (<= 0 x!1) a!66 (- 1)) 3828)))
          (a!80 (and (= (ite (<= 0 x!0) a!33 (- 1)) 87)
                     (= (ite (<= 0 x!1) a!66 (- 1)) 3741)))
          (a!81 (and (= (ite (<= 0 x!0) a!33 (- 1)) 86)
                     (= (ite (<= 0 x!1) a!66 (- 1)) 3655)))
          (a!82 (and (= (ite (<= 0 x!0) a!33 (- 1)) 85)
                     (= (ite (<= 0 x!1) a!66 (- 1)) 3570)))
          (a!83 (and (= (ite (<= 0 x!0) a!33 (- 1)) 84)
                     (= (ite (<= 0 x!1) a!66 (- 1)) 3486)))
          (a!84 (and (= (ite (<= 0 x!0) a!33 (- 1)) 83)
                     (= (ite (<= 0 x!1) a!66 (- 1)) 3403)))
          (a!85 (and (= (ite (<= 0 x!0) a!33 (- 1)) 82)
                     (= (ite (<= 0 x!1) a!66 (- 1)) 3321)))
          (a!86 (and (= (ite (<= 0 x!0) a!33 (- 1)) 81)
                     (= (ite (<= 0 x!1) a!66 (- 1)) 3240)))
          (a!87 (and (= (ite (<= 0 x!0) a!33 (- 1)) 80)
                     (= (ite (<= 0 x!1) a!66 (- 1)) 3160)))
          (a!88 (and (= (ite (<= 0 x!0) a!33 (- 1)) 79)
                     (= (ite (<= 0 x!1) a!66 (- 1)) 3081)))
          (a!89 (and (= (ite (<= 0 x!0) a!33 (- 1)) 78)
                     (= (ite (<= 0 x!1) a!66 (- 1)) 3003)))
          (a!90 (and (= (ite (<= 0 x!0) a!33 (- 1)) 77)
                     (= (ite (<= 0 x!1) a!66 (- 1)) 2926)))
          (a!91 (and (= (ite (<= 0 x!0) a!33 (- 1)) 76)
                     (= (ite (<= 0 x!1) a!66 (- 1)) 2850)))
          (a!92 (and (= (ite (<= 0 x!0) a!33 (- 1)) 75)
                     (= (ite (<= 0 x!1) a!66 (- 1)) 2775)))
          (a!93 (and (= (ite (<= 0 x!0) a!33 (- 1)) 74)
                     (= (ite (<= 0 x!1) a!66 (- 1)) 2701)))
          (a!94 (and (= (ite (<= 0 x!0) a!33 (- 1)) 73)
                     (= (ite (<= 0 x!1) a!66 (- 1)) 2628)))
          (a!95 (and (= (ite (<= 0 x!0) a!33 (- 1)) 72)
                     (= (ite (<= 0 x!1) a!66 (- 1)) 2556)))
          (a!96 (and (= (ite (<= 0 x!0) a!33 (- 1)) 71)
                     (= (ite (<= 0 x!1) a!66 (- 1)) 2485)))
          (a!97 (and (= (ite (<= 0 x!0) a!33 (- 1)) 70)
                     (= (ite (<= 0 x!1) a!66 (- 1)) 2415)))
          (a!98 (and (= (ite (<= 0 x!0) a!33 (- 1)) 69)
                     (= (ite (<= 0 x!1) a!66 (- 1)) 2346)))
          (a!99 (and (= (ite (<= 0 x!0) a!33 (- 1)) 68)
                     (= (ite (<= 0 x!1) a!66 (- 1)) 2278)))
          (a!100 (and (= (ite (<= 0 x!0) a!33 (- 1)) 67)
                      (= (ite (<= 0 x!1) a!66 (- 1)) 2211)))
          (a!101 (and (= (ite (<= 0 x!0) a!33 (- 1)) 66)
                      (= (ite (<= 0 x!1) a!66 (- 1)) 2145)))
          (a!102 (and (= (ite (<= 0 x!0) a!33 (- 1)) 65)
                      (= (ite (<= 0 x!1) a!66 (- 1)) 2080)))
          (a!103 (and (= (ite (<= 0 x!0) a!33 (- 1)) 64)
                      (= (ite (<= 0 x!1) a!66 (- 1)) 2016)))
          (a!104 (and (= (ite (<= 0 x!0) a!33 (- 1)) 63)
                      (= (ite (<= 0 x!1) a!66 (- 1)) 1953)))
          (a!105 (and (= (ite (<= 0 x!0) a!33 (- 1)) 62)
                      (= (ite (<= 0 x!1) a!66 (- 1)) 1891)))
          (a!106 (and (= (ite (<= 0 x!0) a!33 (- 1)) 61)
                      (= (ite (<= 0 x!1) a!66 (- 1)) 1830)))
          (a!107 (and (= (ite (<= 0 x!0) a!33 (- 1)) 60)
                      (= (ite (<= 0 x!1) a!66 (- 1)) 1770)))
          (a!108 (and (= (ite (<= 0 x!0) a!33 (- 1)) 59)
                      (= (ite (<= 0 x!1) a!66 (- 1)) 1711)))
          (a!109 (and (= (ite (<= 0 x!0) a!33 (- 1)) 58)
                      (= (ite (<= 0 x!1) a!66 (- 1)) 1653)))
          (a!110 (and (= (ite (<= 0 x!0) a!33 (- 1)) 57)
                      (= (ite (<= 0 x!1) a!66 (- 1)) 1596)))
          (a!111 (and (= (ite (<= 0 x!0) a!33 (- 1)) 56)
                      (= (ite (<= 0 x!1) a!66 (- 1)) 1540)))
          (a!112 (and (= (ite (<= 0 x!0) a!33 (- 1)) 55)
                      (= (ite (<= 0 x!1) a!66 (- 1)) 1485)))
          (a!113 (and (= (ite (<= 0 x!0) a!33 (- 1)) 54)
                      (= (ite (<= 0 x!1) a!66 (- 1)) 1431)))
          (a!114 (and (= (ite (<= 0 x!0) a!33 (- 1)) 53)
                      (= (ite (<= 0 x!1) a!66 (- 1)) 1378)))
          (a!115 (and (= (ite (<= 0 x!0) a!33 (- 1)) 52)
                      (= (ite (<= 0 x!1) a!66 (- 1)) 1326)))
          (a!116 (and (= (ite (<= 0 x!0) a!33 (- 1)) 51)
                      (= (ite (<= 0 x!1) a!66 (- 1)) 1275)))
          (a!117 (and (= (ite (<= 0 x!0) a!33 (- 1)) 50)
                      (= (ite (<= 0 x!1) a!66 (- 1)) 1225)))
          (a!118 (and (= (ite (<= 0 x!0) a!33 (- 1)) 49)
                      (= (ite (<= 0 x!1) a!66 (- 1)) 1176)))
          (a!119 (and (= (ite (<= 0 x!0) a!33 (- 1)) 48)
                      (= (ite (<= 0 x!1) a!66 (- 1)) 1128)))
          (a!120 (and (= (ite (<= 0 x!0) a!33 (- 1)) 47)
                      (= (ite (<= 0 x!1) a!66 (- 1)) 1081)))
          (a!121 (and (= (ite (<= 0 x!0) a!33 (- 1)) 46)
                      (= (ite (<= 0 x!1) a!66 (- 1)) 1035)))
          (a!122 (and (= (ite (<= 0 x!0) a!33 (- 1)) 45)
                      (= (ite (<= 0 x!1) a!66 (- 1)) 990)))
          (a!123 (and (= (ite (<= 0 x!0) a!33 (- 1)) 44)
                      (= (ite (<= 0 x!1) a!66 (- 1)) 946)))
          (a!124 (and (= (ite (<= 0 x!0) a!33 (- 1)) 43)
                      (= (ite (<= 0 x!1) a!66 (- 1)) 903)))
          (a!125 (and (= (ite (<= 0 x!0) a!33 (- 1)) 42)
                      (= (ite (<= 0 x!1) a!66 (- 1)) 861)))
          (a!126 (and (= (ite (<= 0 x!0) a!33 (- 1)) 41)
                      (= (ite (<= 0 x!1) a!66 (- 1)) 820)))
          (a!127 (and (= (ite (<= 0 x!0) a!33 (- 1)) 40)
                      (= (ite (<= 0 x!1) a!66 (- 1)) 780)))
          (a!128 (and (= (ite (<= 0 x!0) a!33 (- 1)) 39)
                      (= (ite (<= 0 x!1) a!66 (- 1)) 741)))
          (a!129 (and (= (ite (<= 0 x!0) a!33 (- 1)) 38)
                      (= (ite (<= 0 x!1) a!66 (- 1)) 703)))
          (a!130 (and (= (ite (<= 0 x!0) a!33 (- 1)) 37)
                      (= (ite (<= 0 x!1) a!66 (- 1)) 666)))
          (a!131 (and (= (ite (<= 0 x!0) a!33 (- 1)) 36)
                      (= (ite (<= 0 x!1) a!66 (- 1)) 630)))
          (a!132 (and (= (ite (<= 0 x!0) a!33 (- 1)) 35)
                      (= (ite (<= 0 x!1) a!66 (- 1)) 595)))
          (a!133 (and (= (ite (<= 0 x!0) a!33 (- 1)) 34)
                      (= (ite (<= 0 x!1) a!66 (- 1)) 561)))
          (a!134 (and (= (ite (<= 0 x!0) a!33 (- 1)) 33)
                      (= (ite (<= 0 x!1) a!66 (- 1)) 528)))
          (a!135 (and (= (ite (<= 0 x!0) a!33 (- 1)) 32)
                      (= (ite (<= 0 x!1) a!66 (- 1)) 496)))
          (a!136 (and (= (ite (<= 0 x!0) a!33 (- 1)) 31)
                      (= (ite (<= 0 x!1) a!66 (- 1)) 465)))
          (a!137 (and (= (ite (<= 0 x!0) a!33 (- 1)) 30)
                      (= (ite (<= 0 x!1) a!66 (- 1)) 435)))
          (a!138 (and (= (ite (<= 0 x!0) a!33 (- 1)) 29)
                      (= (ite (<= 0 x!1) a!66 (- 1)) 406)))
          (a!139 (and (= (ite (<= 0 x!0) a!33 (- 1)) 28)
                      (= (ite (<= 0 x!1) a!66 (- 1)) 378)))
          (a!140 (and (= (ite (<= 0 x!0) a!33 (- 1)) 27)
                      (= (ite (<= 0 x!1) a!66 (- 1)) 351)))
          (a!141 (and (= (ite (<= 0 x!0) a!33 (- 1)) 26)
                      (= (ite (<= 0 x!1) a!66 (- 1)) 325)))
          (a!142 (and (= (ite (<= 0 x!0) a!33 (- 1)) 25)
                      (= (ite (<= 0 x!1) a!66 (- 1)) 300)))
          (a!143 (and (= (ite (<= 0 x!0) a!33 (- 1)) 24)
                      (= (ite (<= 0 x!1) a!66 (- 1)) 276)))
          (a!144 (and (= (ite (<= 0 x!0) a!33 (- 1)) 23)
                      (= (ite (<= 0 x!1) a!66 (- 1)) 253)))
          (a!145 (and (= (ite (<= 0 x!0) a!33 (- 1)) 22)
                      (= (ite (<= 0 x!1) a!66 (- 1)) 231)))
          (a!146 (and (= (ite (<= 0 x!0) a!33 (- 1)) 21)
                      (= (ite (<= 0 x!1) a!66 (- 1)) 210)))
          (a!147 (and (= (ite (<= 0 x!0) a!33 (- 1)) 20)
                      (= (ite (<= 0 x!1) a!66 (- 1)) 190)))
          (a!148 (and (= (ite (<= 0 x!0) a!33 (- 1)) 19)
                      (= (ite (<= 0 x!1) a!66 (- 1)) 171)))
          (a!149 (and (= (ite (<= 0 x!0) a!33 (- 1)) 18)
                      (= (ite (<= 0 x!1) a!66 (- 1)) 153)))
          (a!150 (and (= (ite (<= 0 x!0) a!33 (- 1)) 17)
                      (= (ite (<= 0 x!1) a!66 (- 1)) 136)))
          (a!151 (and (= (ite (<= 0 x!0) a!33 (- 1)) 16)
                      (= (ite (<= 0 x!1) a!66 (- 1)) 120)))
          (a!152 (and (= (ite (<= 0 x!0) a!33 (- 1)) 15)
                      (= (ite (<= 0 x!1) a!66 (- 1)) 105)))
          (a!153 (and (= (ite (<= 0 x!0) a!33 (- 1)) 14)
                      (= (ite (<= 0 x!1) a!66 (- 1)) 91)))
          (a!154 (and (= (ite (<= 0 x!0) a!33 (- 1)) 13)
                      (= (ite (<= 0 x!1) a!66 (- 1)) 78)))
          (a!155 (and (= (ite (<= 0 x!0) a!33 (- 1)) 12)
                      (= (ite (<= 0 x!1) a!66 (- 1)) 66)))
          (a!156 (and (= (ite (<= 0 x!0) a!33 (- 1)) 11)
                      (= (ite (<= 0 x!1) a!66 (- 1)) 55)))
          (a!157 (and (= (ite (<= 0 x!0) a!33 (- 1)) 10)
                      (= (ite (<= 0 x!1) a!66 (- 1)) 45)))
          (a!158 (and (= (ite (<= 0 x!0) a!33 (- 1)) 9)
                      (= (ite (<= 0 x!1) a!66 (- 1)) 36)))
          (a!159 (and (= (ite (<= 0 x!0) a!33 (- 1)) 8)
                      (= (ite (<= 0 x!1) a!66 (- 1)) 28)))
          (a!160 (and (= (ite (<= 0 x!0) a!33 (- 1)) 7)
                      (= (ite (<= 0 x!1) a!66 (- 1)) 21)))
          (a!161 (and (= (ite (<= 0 x!0) a!33 (- 1)) 6)
                      (= (ite (<= 0 x!1) a!66 (- 1)) 15)))
          (a!162 (and (= (ite (<= 0 x!0) a!33 (- 1)) 5)
                      (= (ite (<= 0 x!1) a!66 (- 1)) 10)))
          (a!163 (and (= (ite (<= 0 x!0) a!33 (- 1)) 4)
                      (= (ite (<= 0 x!1) a!66 (- 1)) 6)))
          (a!164 (and (= (ite (<= 0 x!0) a!33 (- 1)) 3)
                      (= (ite (<= 0 x!1) a!66 (- 1)) 3)))
          (a!165 (and (= (ite (<= 0 x!0) a!33 (- 1)) 2)
                      (= (ite (<= 0 x!1) a!66 (- 1)) 1)))
          (a!166 (and (= (ite (<= 0 x!0) a!33 (- 1)) 0)
                      (= (ite (<= 0 x!1) a!66 (- 1)) 0))))
      (or a!67
          a!68
          a!69
          a!70
          a!71
          a!72
          a!73
          a!74
          a!75
          a!76
          a!77
          a!78
          a!79
          a!80
          a!81
          a!82
          a!83
          a!84
          a!85
          a!86
          a!87
          a!88
          a!89
          a!90
          a!91
          a!92
          a!93
          a!94
          a!95
          a!96
          a!97
          a!98
          a!99
          a!100
          a!101
          a!102
          a!103
          a!104
          a!105
          a!106
          a!107
          a!108
          a!109
          a!110
          a!111
          a!112
          a!113
          a!114
          a!115
          a!116
          a!117
          a!118
          a!119
          a!120
          a!121
          a!122
          a!123
          a!124
          a!125
          a!126
          a!127
          a!128
          a!129
          a!130
          a!131
          a!132
          a!133
          a!134
          a!135
          a!136
          a!137
          a!138
          a!139
          a!140
          a!141
          a!142
          a!143
          a!144
          a!145
          a!146
          a!147
          a!148
          a!149
          a!150
          a!151
          a!152
          a!153
          a!154
          a!155
          a!156
          a!157
          a!158
          a!159
          a!160
          a!161
          a!162
          a!163
          a!164
          a!165
          a!166))))))))))))))))))))))))))))))))))))
)
